presolving:
(round 1, fast)       400 del vars, 500 del conss, 0 add conss, 100 chg bounds, 0 chg sides, 0 chg coeffs, 0 upgd conss, 0 impls, 10100 clqs
   (0.1s) running MILP presolver
   (0.2s) MILP presolver (2 rounds): 0 aggregations, 0 fixings, 0 bound changes
(round 2, exhaustive) 400 del vars, 501 del conss, 0 add conss, 100 chg bounds, 0 chg sides, 0 chg coeffs, 10101 upgd conss, 0 impls, 10100 clqs
   (1.0s) probing: 51/10100 (0.5%) - 0 fixings, 0 aggregations, 0 implications, 0 bound changes
   (1.0s) probing aborted: 50/50 successive totally useless probings
   (1.1s) symmetry computation started: requiring (bin +, int -, cont +), (fixed: bin -, int +, cont -)
   (1.2s) no symmetry present
presolving (3 rounds: 3 fast, 2 medium, 2 exhaustive):
 400 deleted vars, 501 deleted constraints, 0 added constraints, 100 tightened bounds, 0 added holes, 0 changed sides, 0 changed coefficients
 0 implications, 10100 cliques
presolved problem has 10100 variables (10100 bin, 0 int, 0 impl, 0 cont) and 10102 constraints
      1 constraints of type <knapsack>
  10100 constraints of type <setppc>
      1 constraints of type <linear>
Presolving Time: 1.15

 time | node  | left  |LP iter|LP it/n|mem/heur|mdpt |vars |cons |rows |cuts |sepa|confs|strbr|  dualbound   | primalbound  |  gap   | compl. 
p 1.8s|     1 |     0 |     0 |     - | vbounds|   0 |  10k|  10k|  10k|   0 |  0 |   2 |   0 | 0.000000e+00 | 1.431946e+04 |    Inf | unknown
p 1.9s|     1 |     0 |   100 |     - | vbounds|   0 |  10k|  10k|  10k|   0 |  0 |   2 |   0 | 0.000000e+00 | 1.273773e+04 |    Inf | unknown
p 2.0s|     1 |     0 |   200 |     - | vbounds|   0 |  10k|  10k|  10k|   0 |  0 |   2 |   0 | 0.000000e+00 | 1.085120e+04 |    Inf | unknown
  4.2s|     1 |     0 |  4894 |     - |   139M |   0 |  10k|  10k|  10k|   0 |  0 |   2 |   0 | 9.436027e+03 | 1.085120e+04 |  15.00%| unknown
  8.3s|     1 |     0 |  4968 |     - |   146M |   0 |  10k|  10k|  10k|   3 |  1 |   2 |   0 | 9.437354e+03 | 1.085120e+04 |  14.98%| unknown
  8.8s|     1 |     0 |  5032 |     - |   147M |   0 |  10k|  10k|  10k|   4 |  2 |   2 |   0 | 9.438430e+03 | 1.085120e+04 |  14.97%| unknown
r 8.9s|     1 |     0 |  5032 |     - |rounding|   0 |  10k|  10k|  10k|   4 |  2 |   2 |   0 | 9.438430e+03 | 1.018713e+04 |   7.93%| unknown
 11.1s|     1 |     0 |  5332 |     - |   150M |   0 |  10k|  10k|  10k|   8 |  3 |   2 |   0 | 9.443863e+03 | 1.018713e+04 |   7.87%| unknown
i11.1s|     1 |     0 |  5332 |     - |  oneopt|   0 |  10k|  10k|  10k|   8 |  3 |   2 |   0 | 9.443863e+03 | 9.962278e+03 |   5.49%| unknown
 12.0s|     1 |     0 |  5334 |     - |   151M |   0 |  10k|  10k|  10k|   9 |  4 |   2 |   0 | 9.444057e+03 | 9.962278e+03 |   5.49%| unknown
 12.8s|     1 |     0 |  5409 |     - |   152M |   0 |  10k|  10k|  10k|  10 |  5 |   2 |   0 | 9.444780e+03 | 9.962278e+03 |   5.48%| unknown
 13.8s|     1 |     0 |  5661 |     - |   153M |   0 |  10k|  10k|  10k|  12 |  6 |   2 |   0 | 9.447919e+03 | 9.962278e+03 |   5.44%| unknown
 14.6s|     1 |     0 |  5852 |     - |   155M |   0 |  10k|  10k|  10k|  13 |  7 |   2 |   0 | 9.450069e+03 | 9.962278e+03 |   5.42%| unknown
 20.6s|     1 |     0 |  6038 |     - |   156M |   0 |  10k|  10k|  10k|  16 |  8 |   2 |   0 | 9.451581e+03 | 9.962278e+03 |   5.40%| unknown
 21.4s|     1 |     0 |  6097 |     - |   157M |   0 |  10k|  10k|  10k|  18 |  9 |   2 |   0 | 9.451926e+03 | 9.962278e+03 |   5.40%| unknown
 time | node  | left  |LP iter|LP it/n|mem/heur|mdpt |vars |cons |rows |cuts |sepa|confs|strbr|  dualbound   | primalbound  |  gap   | compl. 
 22.4s|     1 |     0 |  6169 |     - |   158M |   0 |  10k|  10k|  10k|  19 | 10 |   2 |   0 | 9.452158e+03 | 9.962278e+03 |   5.40%| unknown
 22.9s|     1 |     0 |  6307 |     - |   159M |   0 |  10k|  10k|  10k|  20 | 11 |   2 |   0 | 9.453118e+03 | 9.962278e+03 |   5.39%| unknown
 23.3s|     1 |     0 |  6352 |     - |   160M |   0 |  10k|  10k|  10k|  21 | 12 |   2 |   0 | 9.453299e+03 | 9.962278e+03 |   5.38%| unknown
 23.7s|     1 |     0 |  6386 |     - |   161M |   0 |  10k|  10k|  10k|  22 | 13 |   2 |   0 | 9.453372e+03 | 9.962278e+03 |   5.38%| unknown
 24.3s|     1 |     0 |  6560 |     - |   162M |   0 |  10k|  10k|  10k|  24 | 14 |   2 |   0 | 9.455030e+03 | 9.962278e+03 |   5.36%| unknown
 24.7s|     1 |     0 |  6629 |     - |   163M |   0 |  10k|  10k|  10k|  25 | 15 |   2 |   0 | 9.455558e+03 | 9.962278e+03 |   5.36%| unknown
 25.3s|     1 |     0 |  6764 |     - |   165M |   0 |  10k|  10k|  10k|  26 | 16 |   2 |   0 | 9.456681e+03 | 9.962278e+03 |   5.35%| unknown
 25.8s|     1 |     0 |  6784 |     - |   166M |   0 |  10k|  10k|  10k|  27 | 17 |   2 |   0 | 9.456767e+03 | 9.962278e+03 |   5.35%| unknown
 26.2s|     1 |     0 |  6882 |     - |   167M |   0 |  10k|  10k|  10k|  28 | 18 |   2 |   0 | 9.457026e+03 | 9.962278e+03 |   5.34%| unknown
 26.5s|     1 |     0 |  6966 |     - |   168M |   0 |  10k|  10k|  10k|  29 | 19 |   2 |   0 | 9.457343e+03 | 9.962278e+03 |   5.34%| unknown
 26.9s|     1 |     0 |  6996 |     - |   169M |   0 |  10k|  10k|  10k|  30 | 20 |   2 |   0 | 9.457426e+03 | 9.962278e+03 |   5.34%| unknown
d29.2s|     1 |     0 | 10588 |     - |farkasdi|   0 |  10k|  10k|  10k|   0 | 22 |   2 |   0 | 9.457426e+03 | 9.610574e+03 |   1.62%| unknown
L32.6s|     1 |     0 | 15009 |     - |    rens|   0 |  10k|  10k|  10k|  30 | 22 |  10 |   0 | 9.457426e+03 | 9.511552e+03 |   0.57%| unknown
 33.0s|     1 |     0 | 15009 |     - |   169M |   0 |  10k|  10k|  10k|  30 | 22 |  10 |   0 | 9.457426e+03 | 9.511552e+03 |   0.57%| unknown
 33.1s|     1 |     0 | 15009 |     - |   171M |   0 |  10k|  10k|3472 |  30 | 22 |  10 |   0 | 9.457426e+03 | 9.511552e+03 |   0.57%| unknown
 time | node  | left  |LP iter|LP it/n|mem/heur|mdpt |vars |cons |rows |cuts |sepa|confs|strbr|  dualbound   | primalbound  |  gap   | compl. 
 33.5s|     1 |     0 | 15009 |     - |   171M |   0 |  10k|3452 |3472 |  30 | 23 |  10 |   0 | 9.457426e+03 | 9.511552e+03 |   0.57%| unknown
(run 1, node 1) restarting after 7683 global fixings of integer variables

(restart) converted 30 cuts from the global cut pool into linear constraints

presolving:
(round 1, fast)       7683 del vars, 2 del conss, 0 add conss, 0 chg bounds, 0 chg sides, 0 chg coeffs, 0 upgd conss, 0 impls, 2481 clqs
   (33.7s) running MILP presolver
   (33.8s) MILP presolver found nothing
(round 2, exhaustive) 7683 del vars, 2 del conss, 0 add conss, 0 chg bounds, 0 chg sides, 0 chg coeffs, 30 upgd conss, 0 impls, 2481 clqs
presolving (3 rounds: 3 fast, 2 medium, 2 exhaustive):
 7683 deleted vars, 2 deleted constraints, 0 added constraints, 0 tightened bounds, 0 added holes, 0 changed sides, 0 changed coefficients
 0 implications, 2481 cliques
presolved problem has 2417 variables (2417 bin, 0 int, 0 impl, 0 cont) and 2521 constraints
     31 constraints of type <knapsack>
   2481 constraints of type <setppc>
      1 constraints of type <linear>
      8 constraints of type <logicor>
Presolving Time: 1.37
transformed 5/8 original solutions to the transformed problem space

 time | node  | left  |LP iter|LP it/n|mem/heur|mdpt |vars |cons |rows |cuts |sepa|confs|strbr|  dualbound   | primalbound  |  gap   | compl. 
 34.9s|     1 |     0 | 19784 |     - |   173M |   0 |2417 |2521 |2513 |   0 |  0 |  10 |   0 | 9.457426e+03 | 9.511552e+03 |   0.57%| unknown
 34.9s|     1 |     0 | 19784 |     - |   173M |   0 |2417 |2521 |2450 |   0 |  0 |  10 |   0 | 9.457426e+03 | 9.511552e+03 |   0.57%| unknown
 36.2s|     1 |     0 | 19874 |     - |   178M |   0 |2417 |2458 |2452 |   2 |  1 |  10 |   0 | 9.458045e+03 | 9.511552e+03 |   0.57%| unknown
 36.2s|     1 |     0 | 19874 |     - |   178M |   0 |2417 |2458 |2438 |   2 |  1 |  10 |   0 | 9.458045e+03 | 9.511552e+03 |   0.57%| unknown
 37.6s|     1 |     0 | 19987 |     - |   182M |   0 |2417 |2444 |2440 |   4 |  2 |  10 |   0 | 9.458614e+03 | 9.511552e+03 |   0.56%| unknown
 37.6s|     1 |     0 | 19987 |     - |   182M |   0 |2417 |2444 |2425 |   4 |  2 |  10 |   0 | 9.458614e+03 | 9.511552e+03 |   0.56%| unknown
 38.9s|     1 |     0 | 20088 |     - |   186M |   0 |2417 |2429 |2426 |   5 |  3 |  10 |   0 | 9.459008e+03 | 9.511552e+03 |   0.56%| unknown
 38.9s|     1 |     0 | 20088 |     - |   186M |   0 |2417 |2429 |2411 |   5 |  3 |  10 |   0 | 9.459008e+03 | 9.511552e+03 |   0.56%| unknown
 40.7s|     1 |     0 | 20154 |     - |   191M |   0 |2417 |2414 |2413 |   7 |  4 |  10 |   0 | 9.459313e+03 | 9.511552e+03 |   0.55%| unknown
 40.7s|     1 |     0 | 20154 |     - |   191M |   0 |2417 |2414 |2408 |   7 |  4 |  10 |   0 | 9.459313e+03 | 9.511552e+03 |   0.55%| unknown
 41.0s|     1 |     0 | 20227 |     - |   191M |   0 |2417 |2409 |2411 |  10 |  5 |  10 |   0 | 9.459532e+03 | 9.511552e+03 |   0.55%| unknown
 41.0s|     1 |     0 | 20227 |     - |   191M |   0 |2417 |2409 |2406 |  10 |  5 |  10 |   0 | 9.459532e+03 | 9.511552e+03 |   0.55%| unknown
 41.3s|     1 |     0 | 20310 |     - |   192M |   0 |2417 |2404 |2410 |  14 |  6 |  10 |   0 | 9.459755e+03 | 9.511552e+03 |   0.55%| unknown
 41.3s|     1 |     0 | 20310 |     - |   192M |   0 |2417 |2404 |2402 |  14 |  6 |  10 |   0 | 9.459755e+03 | 9.511552e+03 |   0.55%| unknown
 41.5s|     1 |     0 | 20357 |     - |   192M |   0 |2417 |2396 |2404 |  16 |  7 |  10 |   0 | 9.459943e+03 | 9.511552e+03 |   0.55%| unknown
 time | node  | left  |LP iter|LP it/n|mem/heur|mdpt |vars |cons |rows |cuts |sepa|confs|strbr|  dualbound   | primalbound  |  gap   | compl. 
 41.5s|     1 |     0 | 20357 |     - |   192M |   0 |2417 |2397 |2398 |  16 |  7 |  11 |   0 | 9.459943e+03 | 9.511552e+03 |   0.55%| unknown
 41.9s|     1 |     0 | 20396 |     - |   192M |   0 |2417 |2391 |2399 |  17 |  8 |  11 |   0 | 9.460018e+03 | 9.511552e+03 |   0.54%| unknown
 42.0s|     1 |     0 | 20396 |     - |   192M |   0 |2417 |2391 |2397 |  17 |  8 |  11 |   0 | 9.460018e+03 | 9.511552e+03 |   0.54%| unknown
 42.4s|     1 |     0 | 20473 |     - |   192M |   0 |2417 |2389 |2398 |  18 |  9 |  11 |   0 | 9.460186e+03 | 9.511552e+03 |   0.54%| unknown
 42.4s|     1 |     0 | 20473 |     - |   192M |   0 |2417 |2389 |2393 |  18 |  9 |  11 |   0 | 9.460186e+03 | 9.511552e+03 |   0.54%| unknown
 48.0s|     1 |     2 | 23938 |     - |   193M |   0 |2417 |2381 |2393 |  18 | 11 |  21 |  19 | 9.471608e+03 | 9.511552e+03 |   0.42%| unknown
(run 2, node 1) restarting after 152 global fixings of integer variables

(restart) converted 18 cuts from the global cut pool into linear constraints

presolving:
(round 1, fast)       152 del vars, 0 del conss, 0 add conss, 0 chg bounds, 0 chg sides, 0 chg coeffs, 0 upgd conss, 0 impls, 2330 clqs
(round 2, exhaustive) 152 del vars, 0 del conss, 0 add conss, 0 chg bounds, 0 chg sides, 0 chg coeffs, 11 upgd conss, 0 impls, 2330 clqs
(round 3, exhaustive) 152 del vars, 8 del conss, 0 add conss, 0 chg bounds, 0 chg sides, 3 chg coeffs, 11 upgd conss, 0 impls, 2330 clqs
presolving (4 rounds: 4 fast, 3 medium, 3 exhaustive):
 152 deleted vars, 8 deleted constraints, 0 added constraints, 0 tightened bounds, 0 added holes, 0 changed sides, 3 changed coefficients
 0 implications, 2330 cliques
presolved problem has 2265 variables (2265 bin, 0 int, 0 impl, 0 cont) and 2391 constraints
     42 constraints of type <knapsack>
   2330 constraints of type <setppc>
      8 constraints of type <linear>
     11 constraints of type <logicor>
Presolving Time: 1.42
transformed 6/9 original solutions to the transformed problem space

 time | node  | left  |LP iter|LP it/n|mem/heur|mdpt |vars |cons |rows |cuts |sepa|confs|strbr|  dualbound   | primalbound  |  gap   | compl. 
 48.8s|     1 |     0 | 28231 |     - |   187M |   0 |2265 |2391 |2380 |   0 |  0 |  21 |  19 | 9.471608e+03 | 9.511552e+03 |   0.42%| unknown
 49.5s|     1 |     0 | 28259 |     - |   187M |   0 |2265 |2391 |2381 |   1 |  1 |  21 |  19 | 9.471608e+03 | 9.511552e+03 |   0.42%| unknown
 49.5s|     1 |     0 | 28259 |     - |   187M |   0 |2265 |2391 |2377 |   1 |  1 |  21 |  19 | 9.471608e+03 | 9.511552e+03 |   0.42%| unknown
 49.9s|     1 |     0 | 28293 |     - |   188M |   0 |2265 |2387 |2378 |   2 |  2 |  21 |  19 | 9.471608e+03 | 9.511552e+03 |   0.42%| unknown
 49.9s|     1 |     0 | 28293 |     - |   188M |   0 |2265 |2388 |2374 |   2 |  2 |  22 |  19 | 9.471608e+03 | 9.511552e+03 |   0.42%| unknown
 50.5s|     1 |     0 | 28303 |     - |   188M |   0 |2265 |2384 |2375 |   3 |  3 |  22 |  19 | 9.471608e+03 | 9.511552e+03 |   0.42%| unknown
 51.0s|     1 |     0 | 28338 |     - |   188M |   0 |2265 |2384 |2376 |   4 |  4 |  22 |  19 | 9.471608e+03 | 9.511552e+03 |   0.42%| unknown
 51.0s|     1 |     0 | 28338 |     - |   188M |   0 |2265 |2384 |2368 |   4 |  4 |  22 |  19 | 9.471608e+03 | 9.511552e+03 |   0.42%| unknown
 51.3s|     1 |     0 | 28382 |     - |   188M |   0 |2265 |2376 |2369 |   5 |  5 |  22 |  19 | 9.471608e+03 | 9.511552e+03 |   0.42%| unknown
 51.4s|     1 |     0 | 28382 |     - |   188M |   0 |2265 |2376 |2367 |   5 |  5 |  22 |  19 | 9.471608e+03 | 9.511552e+03 |   0.42%| unknown
 51.7s|     1 |     0 | 28420 |     - |   189M |   0 |2265 |2374 |2368 |   6 |  6 |  22 |  19 | 9.471608e+03 | 9.511552e+03 |   0.42%| unknown
 51.7s|     1 |     0 | 28420 |     - |   189M |   0 |2265 |2374 |2367 |   6 |  6 |  22 |  19 | 9.471608e+03 | 9.511552e+03 |   0.42%| unknown
 52.1s|     1 |     0 | 28442 |     - |   189M |   0 |2265 |2373 |2369 |   8 |  7 |  22 |  19 | 9.471608e+03 | 9.511552e+03 |   0.42%| unknown
 52.1s|     1 |     0 | 28442 |     - |   189M |   0 |2265 |2373 |2365 |   8 |  7 |  22 |  19 | 9.471608e+03 | 9.511552e+03 |   0.42%| unknown
 52.5s|     1 |     0 | 28457 |     - |   189M |   0 |2265 |2369 |2366 |   9 |  8 |  22 |  19 | 9.471608e+03 | 9.511552e+03 |   0.42%| unknown
 time | node  | left  |LP iter|LP it/n|mem/heur|mdpt |vars |cons |rows |cuts |sepa|confs|strbr|  dualbound   | primalbound  |  gap   | compl. 
 52.5s|     1 |     0 | 28457 |     - |   189M |   0 |2265 |2369 |2365 |   9 |  8 |  22 |  19 | 9.471608e+03 | 9.511552e+03 |   0.42%| unknown
 52.8s|     1 |     0 | 28472 |     - |   189M |   0 |2265 |2368 |2366 |  10 |  9 |  22 |  19 | 9.471608e+03 | 9.511552e+03 |   0.42%| unknown
 52.8s|     1 |     0 | 28472 |     - |   189M |   0 |2265 |2368 |2364 |  10 |  9 |  22 |  19 | 9.471608e+03 | 9.511552e+03 |   0.42%| unknown
 53.2s|     1 |     0 | 28543 |     - |   189M |   0 |2265 |2366 |2365 |  11 | 10 |  22 |  19 | 9.471608e+03 | 9.511552e+03 |   0.42%| unknown
 53.2s|     1 |     0 | 28543 |     - |   189M |   0 |2265 |2366 |2361 |  11 | 10 |  22 |  19 | 9.471608e+03 | 9.511552e+03 |   0.42%| unknown
 53.4s|     1 |     0 | 28613 |     - |   189M |   0 |2265 |2362 |2362 |  12 | 11 |  22 |  19 | 9.471608e+03 | 9.511552e+03 |   0.42%| unknown
 53.5s|     1 |     0 | 28613 |     - |   189M |   0 |2265 |2362 |2353 |  12 | 11 |  22 |  19 | 9.471608e+03 | 9.511552e+03 |   0.42%| unknown
 58.0s|     1 |     2 | 30203 |     - |   189M |   0 |2265 |2359 |2353 |  12 | 11 |  28 |  42 | 9.475911e+03 | 9.511552e+03 |   0.38%| unknown
*60.1s|     4 |     1 | 31516 |2916.2 |strongbr|   2 |2265 |2367 |2337 |  12 |  5 |  36 |  69 | 9.485486e+03 | 9.502623e+03 |   0.18%|  15.38%
*60.1s|     4 |     0 | 31516 |2916.2 |strongbr|   2 |2265 |2367 |2337 |  12 |  5 |  36 |  71 | 9.485486e+03 | 9.496974e+03 |   0.12%|  90.76%

SCIP Status        : problem is solved [optimal solution found]
Solving Time (sec) : 60.14
Solving Nodes      : 4 (total of 6 nodes in 3 runs)
Primal Bound       : +9.49697356733660e+03 (12 solutions)
Dual Bound         : +9.49697356733660e+03
Gap                : 0.00 %
Solve Status: optimal
Solve Time: 60.14 seconds
